p edge 108 609
e 1 2
e 1 3
e 1 4
e 1 5
e 1 6
e 1 7
e 1 8
e 1 9
e 1 10
e 1 11
e 1 12
e 1 13
e 1 14
e 1 15
e 2 3
e 2 4
e 2 5
e 2 6
e 2 7
e 2 8
e 2 9
e 2 10
e 2 11
e 2 12
e 2 16
e 3 5
e 3 6
e 3 7
e 3 8
e 3 9
e 3 10
e 3 11
e 3 12
e 4 5
e 4 6
e 4 7
e 4 8
e 4 9
e 4 10
e 4 11
e 4 12
e 4 17
e 5 6
e 5 7
e 5 8
e 5 9
e 5 10
e 5 11
e 5 12
e 5 18
e 6 7
e 6 8
e 6 9
e 6 10
e 6 11
e 6 12
e 6 19
e 7 8
e 7 9
e 7 10
e 7 11
e 7 12
e 8 9
e 8 10
e 8 11
e 8 12
e 8 20
e 9 10
e 9 11
e 9 12
e 10 11
e 10 12
e 10 17
e 10 21
e 11 12
e 11 22
e 12 23
e 13 35
e 13 36
e 13 14
e 13 37
e 13 38
e 13 39
e 13 40
e 13 41
e 13 42
e 13 20
e 13 43
e 14 35
e 14 36
e 14 37
e 14 38
e 14 39
e 14 40
e 14 41
e 14 42
e 14 20
e 14 43
e 15 59
e 15 60
e 15 61
e 15 21
e 15 62
e 15 63
e 15 64
e 15 65
e 15 67
e 15 18
e 16 47
e 16 17
e 16 48
e 16 49
e 16 50
e 16 51
e 16 52
e 16 53
e 16 54
e 16 55
e 16 56
e 17 47
e 17 48
e 17 49
e 17 50
e 17 51
e 17 52
e 17 53
e 17 54
e 17 55
e 17 56
e 18 59
e 18 60
e 18 61
e 18 21
e 18 62
e 18 63
e 18 64
e 18 65
e 18 66
e 18 67
e 19 24
e 19 25
e 19 23
e 19 26
e 19 27
e 19 28
e 19 29
e 19 30
e 19 22
e 19 31
e 19 32
e 19 33
e 20 35
e 20 36
e 20 37
e 20 38
e 20 39
e 20 40
e 20 41
e 20 42
e 20 43
e 20 45
e 21 59
e 21 60
e 21 61
e 21 62
e 21 63
e 21 64
e 21 65
e 21 66
e 21 67
e 21 70
e 22 24
e 22 25
e 22 23
e 22 26
e 22 27
e 22 29
e 22 30
e 22 31
e 22 32
e 22 34
e 23 24
e 23 25
e 23 26
e 23 27
e 23 28
e 23 29
e 23 30
e 23 31
e 23 32
e 24 25
e 24 26
e 24 27
e 24 28
e 24 29
e 24 30
e 24 31
e 24 32
e 25 26
e 25 27
e 25 28
e 25 29
e 25 30
e 25 31
e 25 32
e 26 27
e 26 28
e 26 29
e 26 30
e 26 31
e 26 32
e 27 28
e 27 29
e 27 30
e 27 31
e 27 32
e 28 29
e 28 30
e 28 31
e 28 32
e 29 30
e 29 31
e 29 32
e 30 31
e 30 32
e 30 33
e 31 32
e 33 71
e 33 72
e 33 73
e 33 74
e 33 75
e 33 34
e 33 76
e 33 77
e 33 78
e 33 79
e 33 80
e 34 71
e 34 72
e 34 73
e 34 74
e 34 75
e 34 76
e 34 77
e 34 78
e 34 79
e 34 80
e 35 36
e 35 37
e 35 38
e 35 39
e 35 40
e 35 41
e 35 42
e 35 43
e 36 37
e 36 38
e 36 39
e 36 40
e 36 41
e 36 42
e 36 43
e 37 38
e 37 39
e 37 40
e 37 41
e 37 42
e 37 43
e 38 39
e 38 40
e 38 41
e 38 42
e 38 43
e 39 40
e 39 41
e 39 43
e 40 41
e 40 42
e 40 43
e 40 44
e 41 42
e 41 43
e 42 43
e 43 46
e 44 81
e 44 82
e 44 83
e 44 84
e 44 85
e 44 46
e 44 45
e 44 86
e 44 87
e 44 88
e 44 89
e 45 81
e 45 82
e 45 83
e 45 84
e 45 85
e 45 46
e 45 86
e 45 87
e 45 88
e 45 89
e 46 81
e 46 82
e 46 83
e 46 84
e 46 85
e 46 86
e 46 87
e 46 88
e 46 89
e 47 48
e 47 49
e 47 50
e 47 51
e 47 52
e 47 53
e 47 54
e 47 55
e 47 56
e 47 57
e 48 49
e 48 50
e 48 51
e 48 52
e 48 53
e 48 54
e 48 55
e 48 56
e 48 57
e 49 50
e 49 51
e 49 52
e 49 53
e 49 54
e 49 56
e 50 51
e 50 52
e 50 53
e 50 54
e 50 55
e 50 56
e 51 52
e 51 53
e 51 54
e 51 55
e 51 56
e 52 53
e 52 54
e 52 55
e 52 56
e 52 58
e 53 54
e 53 55
e 53 56
e 54 55
e 54 56
e 55 56
e 57 90
e 57 91
e 57 92
e 57 93
e 57 94
e 57 95
e 57 96
e 57 97
e 57 98
e 57 58
e 57 99
e 58 90
e 58 91
e 58 92
e 58 93
e 58 94
e 58 95
e 58 96
e 58 97
e 58 98
e 59 60
e 59 61
e 59 62
e 59 63
e 59 64
e 59 65
e 59 66
e 59 67
e 60 61
e 60 62
e 60 63
e 60 64
e 60 65
e 60 66
e 60 67
e 60 68
e 61 62
e 61 63
e 61 64
e 61 65
e 61 66
e 61 67
e 61 69
e 62 63
e 62 64
e 62 65
e 62 66
e 62 67
e 63 64
e 63 65
e 63 66
e 63 67
e 64 65
e 64 66
e 64 67
e 65 66
e 65 67
e 66 67
e 68 100
e 68 101
e 68 102
e 68 70
e 68 103
e 68 104
e 68 105
e 68 69
e 68 106
e 68 107
e 68 108
e 69 100
e 69 101
e 69 102
e 69 70
e 69 103
e 69 104
e 69 105
e 69 106
e 69 107
e 69 108
e 70 100
e 70 101
e 70 102
e 70 103
e 70 104
e 70 105
e 70 106
e 70 107
e 70 108
e 71 72
e 71 73
e 71 74
e 71 75
e 71 76
e 71 77
e 71 78
e 71 79
e 71 80
e 72 73
e 72 74
e 72 75
e 72 76
e 72 77
e 72 78
e 72 79
e 72 80
e 73 74
e 73 75
e 73 76
e 73 77
e 73 79
e 73 80
e 74 75
e 74 76
e 74 77
e 74 78
e 74 79
e 74 80
e 75 76
e 75 77
e 75 78
e 75 79
e 75 80
e 76 77
e 76 78
e 76 79
e 76 80
e 77 78
e 77 79
e 77 80
e 78 79
e 78 80
e 79 80
e 81 82
e 81 83
e 81 84
e 81 85
e 81 86
e 81 87
e 81 88
e 81 89
e 82 83
e 82 84
e 82 85
e 82 86
e 82 87
e 82 88
e 82 89
e 83 84
e 83 85
e 83 86
e 83 87
e 83 88
e 83 89
e 84 85
e 84 86
e 84 87
e 84 88
e 84 89
e 85 86
e 85 87
e 85 88
e 85 89
e 86 88
e 86 89
e 87 88
e 87 89
e 88 89
e 90 91
e 90 92
e 90 93
e 90 94
e 90 95
e 90 96
e 90 97
e 90 98
e 90 99
e 91 92
e 91 93
e 91 94
e 91 95
e 91 96
e 91 97
e 91 98
e 91 99
e 92 93
e 92 94
e 92 95
e 92 96
e 92 97
e 92 98
e 92 99
e 93 94
e 93 95
e 93 96
e 93 97
e 93 98
e 93 99
e 94 95
e 94 96
e 94 97
e 94 98
e 94 99
e 95 96
e 95 97
e 95 98
e 95 99
e 96 97
e 96 98
e 96 99
e 97 98
e 97 99
e 98 99
e 100 101
e 100 102
e 100 103
e 100 104
e 100 105
e 100 106
e 100 107
e 100 108
e 101 102
e 101 103
e 101 104
e 101 105
e 101 106
e 101 107
e 101 108
e 102 103
e 102 105
e 102 106
e 102 107
e 102 108
e 103 104
e 103 105
e 103 106
e 103 107
e 103 108
e 104 105
e 104 106
e 104 107
e 104 108
e 105 106
e 105 107
e 105 108
e 106 107
e 106 108
e 107 108
l 16
t 71 90
